433145.0
4009
0 1 2 4 5 7 8 9 11 12 14 16 17 18 19 20 22 24 25 26 27 28 29 30 31 32 34 35 37 39 40 41 42 43 44 45 46 48 49 50 51 52 54 55 56 57 58 59 60 61 63 65 66 67 68 70 71 72 73 74 75 77 79 81 82 83 84 85 86 87 88 89 90 92 93 94 95 97 98 99 101 103 104 106 107 109 111 112 113 115 116 117 119 120 122 124 126 127 129 130 131 133 134 135 138 139 140 144 145 146 147 148 149 150 151 152 153 154 155 156 157 158 159 160 162 164 166 167 170 171 172 174 175 176 177 178 180 182 183 184 185 186 188 189 192 193 194 195 196 197 199 